Maximize

18 dSta_0 + 74 d0_11 + 18 d0_11 + 0 dSta_0 + 0 dSta_0 + 6 d1_2 + 6 d1_2 + 0 dSta_0 + 0 dSta_0 + 6 d2_20 + 0 d2_20 + 0 dSta_0 + 0 dSta_0 + 7 d3_4 + 0 d3_4 + 0 dSta_0 + 0 dSta_0 + 6 d3_2 + 0 d3_2 + 0 dSta_0 + 0 dSta_0 + 5 d4_5 + 12 d4_5 + 0 dSta_0 + 0 dSta_0 + 33 d5_45 + 0 d5_45 + 0 dSta_0 + 0 dSta_0 + 7 d6_7 + 0 d6_7 + 0 dSta_0 + 0 dSta_0 + 5 d6_5 + 0 d6_5 + 0 dSta_0 + 0 dSta_0 + 8 d7_8 + 6 d7_8 + 0 dSta_0 + 0 dSta_0 + 21 d8_159 + 0 d8_159 + 0 dSta_0 + 0 dSta_0 + 24 d9_10 + 6 d9_10 + 0 dSta_0 + 0 dSta_0 + 8 d9_8 + 6 d9_8 + 0 dSta_0 + 0 dSta_0 + 16 d11_12 + 66 d11_12 + 0 dSta_0 + 0 dSta_0 + 9 d12_13 + 0 d12_13 + 0 dSta_0 + 0 dSta_0 + 15 d12_12 + 0 d12_12 + 0 dSta_0 + 0 dSta_0 + 15 d13_14 + 12 d13_14 + 0 dSta_0 + 0 dSta_0 + 3 d14_15 + 0 d14_15 + 0 dSta_0 + 0 dSta_0 + 15 d14_14 + 0 d14_14 + 0 dSta_0 + 0 dSta_0 + 5 d15_16 + 6 d15_16 + 0 dSta_0 + 0 dSta_0 + 5 d16_17 + 0 d16_17 + 0 dSta_0 + 0 dSta_0 + 5 d16_16 + 0 d16_16 + 0 dSta_0 + 0 dSta_0 + 9 d17_18 + 6 d17_18 + 0 dSta_0 + 0 dSta_0 + 1 d18_19 + 0 d18_19 + 0 dSta_0 + 0 dSta_0 + 9 d18_18 + 0 d18_18 + 0 dSta_0 + 0 dSta_0 + 6 d19_1 + 0 d19_1 + 0 dSta_0 + 0 dSta_0 + 16 d20_22 + 0 d20_22 + 0 dSta_0 + 0 dSta_0 + 12 d21_3 + 0 d21_3 + 0 dSta_0 + 0 dSta_0 + 3 d22_23 + 0 d22_23 + 0 dSta_0 + 0 dSta_0 + 2 d22_26 + 0 d22_26 + 0 dSta_0 + 0 dSta_0 + 1 d23_24 + 0 d23_24 + 0 dSta_0 + 0 dSta_0 + 3 d23_23 + 0 d23_23 + 0 dSta_0 + 0 dSta_0 + 2 d24_26 + 0 d24_26 + 0 dSta_0 + 0 dSta_0 + 2 d25_26 + 0 d25_26 + 0 dSta_0 + 0 dSta_0 + 24 d26_27 + 0 d26_27 + 0 dSta_0 + 0 dSta_0 + 1 d26_25 + 0 d26_25 + 0 dSta_0 + 0 dSta_0 + 1 d27_28 + 0 d27_28 + 0 dSta_0 + 0 dSta_0 + 2 d27_29 + 0 d27_29 + 0 dSta_0 + 0 dSta_0 + 2 d28_29 + 0 d28_29 + 0 dSta_0 + 0 dSta_0 + 2 d29_30 + 0 d29_30 + 0 dSta_0 + 0 dSta_0 + 11 d29_32 + 0 d29_32 + 0 dSta_0 + 0 dSta_0 + 1 d30_31 + 0 d30_31 + 0 dSta_0 + 0 dSta_0 + 11 d30_32 + 0 d30_32 + 0 dSta_0 + 0 dSta_0 + 11 d31_32 + 0 d31_32 + 0 dSta_0 + 0 dSta_0 + 2 d32_33 + 0 d32_33 + 0 dSta_0 + 0 dSta_0 + 2 d33_42 + 0 d33_42 + 0 dSta_0 + 0 dSta_0 + 15 d34_35 + 0 d34_35 + 0 dSta_0 + 0 dSta_0 + 15 d34_41 + 0 d34_41 + 0 dSta_0 + 0 dSta_0 + 1 d35_36 + 0 d35_36 + 0 dSta_0 + 0 dSta_0 + 2 d35_37 + 0 d35_37 + 0 dSta_0 + 0 dSta_0 + 2 d36_37 + 0 d36_37 + 0 dSta_0 + 0 dSta_0 + 2 d37_38 + 0 d37_38 + 0 dSta_0 + 0 dSta_0 + 5 d37_40 + 0 d37_40 + 0 dSta_0 + 0 dSta_0 + 1 d38_39 + 0 d38_39 + 0 dSta_0 + 0 dSta_0 + 5 d38_40 + 0 d38_40 + 0 dSta_0 + 0 dSta_0 + 5 d39_40 + 0 d39_40 + 0 dSta_0 + 0 dSta_0 + 2 d40_33 + 0 d40_33 + 0 dSta_0 + 0 dSta_0 + 4 d41_21 + 0 d41_21 + 0 dSta_0 + 0 dSta_0 + 1 d42_43 + 0 d42_43 + 0 dSta_0 + 0 dSta_0 + 1 d42_44 + 0 d42_44 + 0 dSta_0 + 0 dSta_0 + 1 d43_44 + 0 d43_44 + 0 dSta_0 + 0 dSta_0 + 1 d44_34 + 0 d44_34 + 0 dSta_0 + 0 dSta_0 + 24 d45_46 + 12 d45_46 + 0 dSta_0 + 0 dSta_0 + 20 d46_47 + 0 d46_47 + 0 dSta_0 + 0 dSta_0 + 24 d46_46 + 0 d46_46 + 0 dSta_0 + 0 dSta_0 + 9 d47_48 + 6 d47_48 + 0 dSta_0 + 0 dSta_0 + 19 d48_49 + 0 d48_49 + 0 dSta_0 + 0 dSta_0 + 9 d48_48 + 0 d48_48 + 0 dSta_0 + 0 dSta_0 + 12 d49_71 + 6 d49_71 + 0 dSta_0 + 0 dSta_0 + 15 d50_74 + 6 d50_74 + 0 dSta_0 + 0 dSta_0 + 10 d51_75 + 0 d51_75 + 0 dSta_0 + 0 dSta_0 + 11 d52_86 + 6 d52_86 + 0 dSta_0 + 0 dSta_0 + 12 d53_91 + 0 d53_91 + 0 dSta_0 + 0 dSta_0 + 3 d54_92 + 6 d54_92 + 0 dSta_0 + 0 dSta_0 + 8 d55_101 + 0 d55_101 + 0 dSta_0 + 0 dSta_0 + 9 d56_111 + 0 d56_111 + 0 dSta_0 + 0 dSta_0 + 12 d57_119 + 12 d57_119 + 0 dSta_0 + 0 dSta_0 + 15 d58_122 + 0 d58_122 + 0 dSta_0 + 0 dSta_0 + 2 d59_60 + 0 d59_60 + 0 dSta_0 + 0 dSta_0 + 1 d59_61 + 0 d59_61 + 0 dSta_0 + 0 dSta_0 + 15 d60_62 + 0 d60_62 + 0 dSta_0 + 0 dSta_0 + 15 d61_62 + 0 d61_62 + 0 dSta_0 + 0 dSta_0 + 2 d62_123 + 12 d62_123 + 0 dSta_0 + 0 dSta_0 + 4 d63_64 + 0 d63_64 + 0 dSta_0 + 0 dSta_0 + 20 d63_65 + 0 d63_65 + 0 dSta_0 + 0 dSta_0 + 21 d64_65 + 0 d64_65 + 0 dSta_0 + 0 dSta_0 + 10 d65_126 + 0 d65_126 + 0 dSta_0 + 0 dSta_0 + 12 d66_131 + 0 d66_131 + 0 dSta_0 + 0 dSta_0 + 3 d67_132 + 6 d67_132 + 0 dSta_0 + 0 dSta_0 + 8 d68_141 + 6 d68_141 + 0 dSta_0 + 0 dSta_0 + 9 d69_151 + 0 d69_151 + 0 dSta_0 + 0 dSta_0 + 12 d70_6 + 12 d70_6 + 0 dSta_0 + 0 dSta_0 + 15 d71_72 + 6 d71_72 + 0 dSta_0 + 0 dSta_0 + 2 d72_73 + 0 d72_73 + 0 dSta_0 + 0 dSta_0 + 15 d72_72 + 0 d72_72 + 0 dSta_0 + 0 dSta_0 + 11 d73_50 + 0 d73_50 + 0 dSta_0 + 0 dSta_0 + 15 d74_51 + 6 d74_51 + 0 dSta_0 + 0 dSta_0 + 2 d75_83 + 6 d75_83 + 0 dSta_0 + 0 dSta_0 + 10 d76_77 + 0 d76_77 + 0 dSta_0 + 0 dSta_0 + 4 d77_78 + 0 d77_78 + 0 dSta_0 + 0 dSta_0 + 1 d77_79 + 0 d77_79 + 0 dSta_0 + 0 dSta_0 + 1 d78_79 + 0 d78_79 + 0 dSta_0 + 0 dSta_0 + 10 d78_77 + 0 d78_77 + 0 dSta_0 + 0 dSta_0 + 6 d79_80 + 0 d79_80 + 0 dSta_0 + 0 dSta_0 + 4 d79_81 + 0 d79_81 + 0 dSta_0 + 0 dSta_0 + 8 d80_82 + 6 d80_82 + 0 dSta_0 + 0 dSta_0 + 9 d81_82 + 6 d81_82 + 0 dSta_0 + 0 dSta_0 + 20 d82_52 + 6 d82_52 + 0 dSta_0 + 0 dSta_0 + 1 d83_84 + 6 d83_84 + 0 dSta_0 + 0 dSta_0 + 1 d83_85 + 6 d83_85 + 0 dSta_0 + 0 dSta_0 + 1 d84_85 + 0 d84_85 + 0 dSta_0 + 0 dSta_0 + 4 d85_76 + 0 d85_76 + 0 dSta_0 + 0 dSta_0 + 1 d86_87 + 0 d86_87 + 0 dSta_0 + 0 dSta_0 + 2 d86_88 + 0 d86_88 + 0 dSta_0 + 0 dSta_0 + 2 d87_88 + 0 d87_88 + 0 dSta_0 + 0 dSta_0 + 1 d88_89 + 0 d88_89 + 0 dSta_0 + 0 dSta_0 + 2 d88_90 + 0 d88_90 + 0 dSta_0 + 0 dSta_0 + 2 d89_90 + 0 d89_90 + 0 dSta_0 + 0 dSta_0 + 5 d90_53 + 0 d90_53 + 0 dSta_0 + 0 dSta_0 + 12 d91_54 + 6 d91_54 + 0 dSta_0 + 0 dSta_0 + 1 d92_93 + 6 d92_93 + 0 dSta_0 + 0 dSta_0 + 2 d92_96 + 6 d92_96 + 0 dSta_0 + 0 dSta_0 + 11 d93_94 + 0 d93_94 + 0 dSta_0 + 0 dSta_0 + 1 d94_95 + 0 d94_95 + 0 dSta_0 + 0 dSta_0 + 11 d94_94 + 0 d94_94 + 0 dSta_0 + 0 dSta_0 + 19 d95_100 + 0 d95_100 + 0 dSta_0 + 0 dSta_0 + 9 d96_97 + 0 d96_97 + 0 dSta_0 + 0 dSta_0 + 1 d97_98 + 0 d97_98 + 0 dSta_0 + 0 dSta_0 + 13 d97_99 + 0 d97_99 + 0 dSta_0 + 0 dSta_0 + 13 d98_99 + 0 d98_99 + 0 dSta_0 + 0 dSta_0 + 19 d99_100 + 0 d99_100 + 0 dSta_0 + 0 dSta_0 + 9 d99_97 + 0 d99_97 + 0 dSta_0 + 0 dSta_0 + 13 d100_55 + 6 d100_55 + 0 dSta_0 + 0 dSta_0 + 1 d101_102 + 0 d101_102 + 0 dSta_0 + 0 dSta_0 + 7 d101_103 + 0 d101_103 + 0 dSta_0 + 0 dSta_0 + 7 d102_103 + 0 d102_103 + 0 dSta_0 + 0 dSta_0 + 2 d103_104 + 0 d103_104 + 0 dSta_0 + 0 dSta_0 + 1 d103_105 + 0 d103_105 + 0 dSta_0 + 0 dSta_0 + 6 d104_106 + 0 d104_106 + 0 dSta_0 + 0 dSta_0 + 6 d105_106 + 0 d105_106 + 0 dSta_0 + 0 dSta_0 + 1 d106_107 + 6 d106_107 + 0 dSta_0 + 0 dSta_0 + 2 d106_108 + 6 d106_108 + 0 dSta_0 + 0 dSta_0 + 2 d107_108 + 0 d107_108 + 0 dSta_0 + 0 dSta_0 + 1 d108_109 + 0 d108_109 + 0 dSta_0 + 0 dSta_0 + 2 d108_110 + 0 d108_110 + 0 dSta_0 + 0 dSta_0 + 2 d109_110 + 0 d109_110 + 0 dSta_0 + 0 dSta_0 + 10 d110_56 + 6 d110_56 + 0 dSta_0 + 0 dSta_0 + 2 d111_112 + 0 d111_112 + 0 dSta_0 + 0 dSta_0 + 1 d111_113 + 0 d111_113 + 0 dSta_0 + 0 dSta_0 + 4 d112_114 + 0 d112_114 + 0 dSta_0 + 0 dSta_0 + 4 d113_114 + 0 d113_114 + 0 dSta_0 + 0 dSta_0 + 1 d114_115 + 0 d114_115 + 0 dSta_0 + 0 dSta_0 + 3 d114_116 + 0 d114_116 + 0 dSta_0 + 0 dSta_0 + 3 d115_116 + 0 d115_116 + 0 dSta_0 + 0 dSta_0 + 1 d116_117 + 0 d116_117 + 0 dSta_0 + 0 dSta_0 + 2 d116_118 + 0 d116_118 + 0 dSta_0 + 0 dSta_0 + 2 d117_118 + 0 d117_118 + 0 dSta_0 + 0 dSta_0 + 28 d118_57 + 0 d118_57 + 0 dSta_0 + 0 dSta_0 + 15 d119_120 + 6 d119_120 + 0 dSta_0 + 0 dSta_0 + 2 d120_121 + 0 d120_121 + 0 dSta_0 + 0 dSta_0 + 15 d120_120 + 0 d120_120 + 0 dSta_0 + 0 dSta_0 + 11 d121_58 + 0 d121_58 + 0 dSta_0 + 0 dSta_0 + 13 d122_59 + 6 d122_59 + 0 dSta_0 + 0 dSta_0 + 1 d123_124 + 6 d123_124 + 0 dSta_0 + 0 dSta_0 + 1 d123_125 + 6 d123_125 + 0 dSta_0 + 0 dSta_0 + 1 d124_125 + 0 d124_125 + 0 dSta_0 + 0 dSta_0 + 2 d125_63 + 0 d125_63 + 0 dSta_0 + 0 dSta_0 + 1 d126_127 + 6 d126_127 + 0 dSta_0 + 0 dSta_0 + 2 d126_128 + 6 d126_128 + 0 dSta_0 + 0 dSta_0 + 2 d127_128 + 0 d127_128 + 0 dSta_0 + 0 dSta_0 + 1 d128_129 + 6 d128_129 + 0 dSta_0 + 0 dSta_0 + 2 d128_130 + 6 d128_130 + 0 dSta_0 + 0 dSta_0 + 2 d129_130 + 0 d129_130 + 0 dSta_0 + 0 dSta_0 + 5 d130_66 + 0 d130_66 + 0 dSta_0 + 0 dSta_0 + 14 d131_67 + 6 d131_67 + 0 dSta_0 + 0 dSta_0 + 1 d132_133 + 6 d132_133 + 0 dSta_0 + 0 dSta_0 + 2 d132_136 + 6 d132_136 + 0 dSta_0 + 0 dSta_0 + 11 d133_134 + 0 d133_134 + 0 dSta_0 + 0 dSta_0 + 1 d134_135 + 0 d134_135 + 0 dSta_0 + 0 dSta_0 + 11 d134_134 + 0 d134_134 + 0 dSta_0 + 0 dSta_0 + 19 d135_140 + 0 d135_140 + 0 dSta_0 + 0 dSta_0 + 9 d136_137 + 0 d136_137 + 0 dSta_0 + 0 dSta_0 + 1 d137_138 + 0 d137_138 + 0 dSta_0 + 0 dSta_0 + 13 d137_139 + 0 d137_139 + 0 dSta_0 + 0 dSta_0 + 13 d138_139 + 0 d138_139 + 0 dSta_0 + 0 dSta_0 + 19 d139_140 + 0 d139_140 + 0 dSta_0 + 0 dSta_0 + 9 d139_137 + 0 d139_137 + 0 dSta_0 + 0 dSta_0 + 13 d140_68 + 6 d140_68 + 0 dSta_0 + 0 dSta_0 + 1 d141_142 + 0 d141_142 + 0 dSta_0 + 0 dSta_0 + 7 d141_143 + 0 d141_143 + 0 dSta_0 + 0 dSta_0 + 7 d142_143 + 0 d142_143 + 0 dSta_0 + 0 dSta_0 + 2 d143_144 + 0 d143_144 + 0 dSta_0 + 0 dSta_0 + 1 d143_145 + 0 d143_145 + 0 dSta_0 + 0 dSta_0 + 6 d144_146 + 0 d144_146 + 0 dSta_0 + 0 dSta_0 + 6 d145_146 + 0 d145_146 + 0 dSta_0 + 0 dSta_0 + 1 d146_147 + 6 d146_147 + 0 dSta_0 + 0 dSta_0 + 2 d146_148 + 6 d146_148 + 0 dSta_0 + 0 dSta_0 + 2 d147_148 + 0 d147_148 + 0 dSta_0 + 0 dSta_0 + 1 d148_149 + 0 d148_149 + 0 dSta_0 + 0 dSta_0 + 2 d148_150 + 0 d148_150 + 0 dSta_0 + 0 dSta_0 + 2 d149_150 + 0 d149_150 + 0 dSta_0 + 0 dSta_0 + 10 d150_69 + 6 d150_69 + 0 dSta_0 + 0 dSta_0 + 2 d151_152 + 0 d151_152 + 0 dSta_0 + 0 dSta_0 + 1 d151_153 + 0 d151_153 + 0 dSta_0 + 0 dSta_0 + 4 d152_154 + 0 d152_154 + 0 dSta_0 + 0 dSta_0 + 4 d153_154 + 0 d153_154 + 0 dSta_0 + 0 dSta_0 + 1 d154_155 + 0 d154_155 + 0 dSta_0 + 0 dSta_0 + 3 d154_156 + 0 d154_156 + 0 dSta_0 + 0 dSta_0 + 3 d155_156 + 0 d155_156 + 0 dSta_0 + 0 dSta_0 + 1 d156_157 + 0 d156_157 + 0 dSta_0 + 0 dSta_0 + 2 d156_158 + 0 d156_158 + 0 dSta_0 + 0 dSta_0 + 2 d157_158 + 0 d157_158 + 0 dSta_0 + 0 dSta_0 + 37 d158_70 + 0 d158_70 + 0 dSta_0 + 0 dSta_0 + 12 d159_178 + 0 d159_178 + 0 dSta_0 + 0 dSta_0 + 15 d160_181 + 0 d160_181 + 0 dSta_0 + 0 dSta_0 + 11 d161_182 + 12 d161_182 + 0 dSta_0 + 0 dSta_0 + 12 d162_187 + 0 d162_187 + 0 dSta_0 + 0 dSta_0 + 3 d163_188 + 6 d163_188 + 0 dSta_0 + 0 dSta_0 + 8 d164_197 + 6 d164_197 + 0 dSta_0 + 0 dSta_0 + 9 d165_207 + 0 d165_207 + 0 dSta_0 + 0 dSta_0 + 12 d166_215 + 6 d166_215 + 0 dSta_0 + 0 dSta_0 + 15 d167_218 + 6 d167_218 + 0 dSta_0 + 0 dSta_0 + 10 d168_219 + 0 d168_219 + 0 dSta_0 + 0 dSta_0 + 12 d169_224 + 6 d169_224 + 0 dSta_0 + 0 dSta_0 + 3 d170_225 + 0 d170_225 + 0 dSta_0 + 0 dSta_0 + 8 d171_234 + 0 d171_234 + 0 dSta_0 + 0 dSta_0 + 9 d172_244 + 0 d172_244 + 0 dSta_0 + 0 dSta_0 + 24 d173_174 + 12 d173_174 + 0 dSta_0 + 0 dSta_0 + 24 d174_175 + 0 d174_175 + 0 dSta_0 + 0 dSta_0 + 24 d174_174 + 0 d174_174 + 0 dSta_0 + 0 dSta_0 + 16 d175_176 + 6 d175_176 + 0 dSta_0 + 0 dSta_0 + 16 d176_177 + 0 d176_177 + 0 dSta_0 + 0 dSta_0 + 15 d176_176 + 0 d176_176 + 0 dSta_0 + 0 dSta_0 + 13 d177_9 + 6 d177_9 + 0 dSta_0 + 0 dSta_0 + 15 d178_179 + 6 d178_179 + 0 dSta_0 + 0 dSta_0 + 2 d179_180 + 0 d179_180 + 0 dSta_0 + 0 dSta_0 + 15 d179_179 + 0 d179_179 + 0 dSta_0 + 0 dSta_0 + 11 d180_160 + 0 d180_160 + 0 dSta_0 + 0 dSta_0 + 41 d181_161 + 6 d181_161 + 0 dSta_0 + 0 dSta_0 + 1 d182_183 + 0 d182_183 + 0 dSta_0 + 0 dSta_0 + 2 d182_184 + 0 d182_184 + 0 dSta_0 + 0 dSta_0 + 2 d183_184 + 0 d183_184 + 0 dSta_0 + 0 dSta_0 + 1 d184_185 + 0 d184_185 + 0 dSta_0 + 0 dSta_0 + 2 d184_186 + 0 d184_186 + 0 dSta_0 + 0 dSta_0 + 2 d185_186 + 0 d185_186 + 0 dSta_0 + 0 dSta_0 + 5 d186_162 + 0 d186_162 + 0 dSta_0 + 0 dSta_0 + 12 d187_163 + 6 d187_163 + 0 dSta_0 + 0 dSta_0 + 1 d188_189 + 6 d188_189 + 0 dSta_0 + 0 dSta_0 + 2 d188_192 + 6 d188_192 + 0 dSta_0 + 0 dSta_0 + 11 d189_190 + 0 d189_190 + 0 dSta_0 + 0 dSta_0 + 1 d190_191 + 0 d190_191 + 0 dSta_0 + 0 dSta_0 + 11 d190_190 + 0 d190_190 + 0 dSta_0 + 0 dSta_0 + 19 d191_196 + 0 d191_196 + 0 dSta_0 + 0 dSta_0 + 9 d192_193 + 0 d192_193 + 0 dSta_0 + 0 dSta_0 + 1 d193_194 + 0 d193_194 + 0 dSta_0 + 0 dSta_0 + 13 d193_195 + 0 d193_195 + 0 dSta_0 + 0 dSta_0 + 13 d194_195 + 0 d194_195 + 0 dSta_0 + 0 dSta_0 + 19 d195_196 + 0 d195_196 + 0 dSta_0 + 0 dSta_0 + 9 d195_193 + 0 d195_193 + 0 dSta_0 + 0 dSta_0 + 13 d196_164 + 6 d196_164 + 0 dSta_0 + 0 dSta_0 + 1 d197_198 + 0 d197_198 + 0 dSta_0 + 0 dSta_0 + 7 d197_199 + 0 d197_199 + 0 dSta_0 + 0 dSta_0 + 7 d198_199 + 0 d198_199 + 0 dSta_0 + 0 dSta_0 + 2 d199_200 + 0 d199_200 + 0 dSta_0 + 0 dSta_0 + 1 d199_201 + 0 d199_201 + 0 dSta_0 + 0 dSta_0 + 6 d200_202 + 0 d200_202 + 0 dSta_0 + 0 dSta_0 + 6 d201_202 + 0 d201_202 + 0 dSta_0 + 0 dSta_0 + 1 d202_203 + 6 d202_203 + 0 dSta_0 + 0 dSta_0 + 2 d202_204 + 6 d202_204 + 0 dSta_0 + 0 dSta_0 + 2 d203_204 + 0 d203_204 + 0 dSta_0 + 0 dSta_0 + 1 d204_205 + 0 d204_205 + 0 dSta_0 + 0 dSta_0 + 2 d204_206 + 0 d204_206 + 0 dSta_0 + 0 dSta_0 + 2 d205_206 + 0 d205_206 + 0 dSta_0 + 0 dSta_0 + 10 d206_165 + 6 d206_165 + 0 dSta_0 + 0 dSta_0 + 2 d207_208 + 0 d207_208 + 0 dSta_0 + 0 dSta_0 + 1 d207_209 + 0 d207_209 + 0 dSta_0 + 0 dSta_0 + 4 d208_210 + 0 d208_210 + 0 dSta_0 + 0 dSta_0 + 4 d209_210 + 0 d209_210 + 0 dSta_0 + 0 dSta_0 + 1 d210_211 + 0 d210_211 + 0 dSta_0 + 0 dSta_0 + 3 d210_212 + 0 d210_212 + 0 dSta_0 + 0 dSta_0 + 3 d211_212 + 0 d211_212 + 0 dSta_0 + 0 dSta_0 + 1 d212_213 + 0 d212_213 + 0 dSta_0 + 0 dSta_0 + 2 d212_214 + 0 d212_214 + 0 dSta_0 + 0 dSta_0 + 2 d213_214 + 0 d213_214 + 0 dSta_0 + 0 dSta_0 + 30 d214_166 + 0 d214_166 + 0 dSta_0 + 0 dSta_0 + 15 d215_216 + 6 d215_216 + 0 dSta_0 + 0 dSta_0 + 2 d216_217 + 0 d216_217 + 0 dSta_0 + 0 dSta_0 + 15 d216_216 + 0 d216_216 + 0 dSta_0 + 0 dSta_0 + 11 d217_167 + 0 d217_167 + 0 dSta_0 + 0 dSta_0 + 24 d218_168 + 6 d218_168 + 0 dSta_0 + 0 dSta_0 + 1 d219_220 + 6 d219_220 + 0 dSta_0 + 0 dSta_0 + 2 d219_221 + 6 d219_221 + 0 dSta_0 + 0 dSta_0 + 2 d220_221 + 0 d220_221 + 0 dSta_0 + 0 dSta_0 + 1 d221_222 + 6 d221_222 + 0 dSta_0 + 0 dSta_0 + 2 d221_223 + 6 d221_223 + 0 dSta_0 + 0 dSta_0 + 2 d222_223 + 0 d222_223 + 0 dSta_0 + 0 dSta_0 + 5 d223_169 + 0 d223_169 + 0 dSta_0 + 0 dSta_0 + 12 d224_170 + 6 d224_170 + 0 dSta_0 + 0 dSta_0 + 1 d225_226 + 6 d225_226 + 0 dSta_0 + 0 dSta_0 + 2 d225_229 + 6 d225_229 + 0 dSta_0 + 0 dSta_0 + 11 d226_227 + 0 d226_227 + 0 dSta_0 + 0 dSta_0 + 1 d227_228 + 0 d227_228 + 0 dSta_0 + 0 dSta_0 + 11 d227_227 + 0 d227_227 + 0 dSta_0 + 0 dSta_0 + 19 d228_233 + 0 d228_233 + 0 dSta_0 + 0 dSta_0 + 9 d229_230 + 0 d229_230 + 0 dSta_0 + 0 dSta_0 + 1 d230_231 + 0 d230_231 + 0 dSta_0 + 0 dSta_0 + 13 d230_232 + 0 d230_232 + 0 dSta_0 + 0 dSta_0 + 13 d231_232 + 0 d231_232 + 0 dSta_0 + 0 dSta_0 + 19 d232_233 + 0 d232_233 + 0 dSta_0 + 0 dSta_0 + 9 d232_230 + 0 d232_230 + 0 dSta_0 + 0 dSta_0 + 13 d233_171 + 6 d233_171 + 0 dSta_0 + 0 dSta_0 + 1 d234_235 + 0 d234_235 + 0 dSta_0 + 0 dSta_0 + 7 d234_236 + 0 d234_236 + 0 dSta_0 + 0 dSta_0 + 7 d235_236 + 0 d235_236 + 0 dSta_0 + 0 dSta_0 + 2 d236_237 + 0 d236_237 + 0 dSta_0 + 0 dSta_0 + 1 d236_238 + 0 d236_238 + 0 dSta_0 + 0 dSta_0 + 6 d237_239 + 0 d237_239 + 0 dSta_0 + 0 dSta_0 + 6 d238_239 + 0 d238_239 + 0 dSta_0 + 0 dSta_0 + 1 d239_240 + 6 d239_240 + 0 dSta_0 + 0 dSta_0 + 2 d239_241 + 6 d239_241 + 0 dSta_0 + 0 dSta_0 + 2 d240_241 + 0 d240_241 + 0 dSta_0 + 0 dSta_0 + 1 d241_242 + 0 d241_242 + 0 dSta_0 + 0 dSta_0 + 2 d241_243 + 0 d241_243 + 0 dSta_0 + 0 dSta_0 + 2 d242_243 + 0 d242_243 + 0 dSta_0 + 0 dSta_0 + 10 d243_172 + 6 d243_172 + 0 dSta_0 + 0 dSta_0 + 2 d244_245 + 0 d244_245 + 0 dSta_0 + 0 dSta_0 + 1 d244_246 + 0 d244_246 + 0 dSta_0 + 0 dSta_0 + 4 d245_247 + 0 d245_247 + 0 dSta_0 + 0 dSta_0 + 4 d246_247 + 0 d246_247 + 0 dSta_0 + 0 dSta_0 + 1 d247_248 + 0 d247_248 + 0 dSta_0 + 0 dSta_0 + 3 d247_249 + 0 d247_249 + 0 dSta_0 + 0 dSta_0 + 3 d248_249 + 0 d248_249 + 0 dSta_0 + 0 dSta_0 + 1 d249_250 + 0 d249_250 + 0 dSta_0 + 0 dSta_0 + 2 d249_251 + 0 d249_251 + 0 dSta_0 + 0 dSta_0 + 2 d250_251 + 0 d250_251 + 0 dSta_0 + 0 dSta_0 + 51 d251_173 + 0 d251_173 + 0 dSta_0 + 0 dSta_0


Subject to


\ === tcfg constraints ===
dSta_0 = 1
b0 - d0_11 = 0
b0 - dSta_0 = 0
b1 - d1_2 = 0
b1 - d19_1 = 0
b2 - d2_20 = 0
b2 - d1_2 - d3_2 = 0
b3 - d3_4 - d3_2 = 0
b3 - d21_3 = 0
b4 - d4_5 = 0
b4 - d3_4 = 0
b5 - d5_45 = 0
b5 - d4_5 - d6_5 = 0
b6 - d6_7 - d6_5 = 0
b6 - d70_6 = 0
b7 - d7_8 = 0
b7 - d6_7 = 0
b8 - d8_159 = 0
b8 - d7_8 - d9_8 = 0
b9 - d9_10 - d9_8 = 0
b9 - d177_9 = 0
b10 - d9_10 = 0
b11 - d11_12 = 0
b11 - d0_11 = 0
b12 - d12_13 - d12_12 = 0
b12 - d11_12 - d12_12 = 0
b13 - d13_14 = 0
b13 - d12_13 = 0
b14 - d14_15 - d14_14 = 0
b14 - d13_14 - d14_14 = 0
b15 - d15_16 = 0
b15 - d14_15 = 0
b16 - d16_17 - d16_16 = 0
b16 - d15_16 - d16_16 = 0
b17 - d17_18 = 0
b17 - d16_17 = 0
b18 - d18_19 - d18_18 = 0
b18 - d17_18 - d18_18 = 0
b19 - d19_1 = 0
b19 - d18_19 = 0
b20 - d20_22 = 0
b20 - d2_20 = 0
b21 - d21_3 = 0
b21 - d41_21 = 0
b22 - d22_23 - d22_26 = 0
b22 - d20_22 = 0
b23 - d23_24 - d23_23 = 0
b23 - d22_23 - d23_23 = 0
b24 - d24_26 = 0
b24 - d23_24 = 0
b25 - d25_26 = 0
b25 - d26_25 = 0
b26 - d26_27 - d26_25 = 0
b26 - d22_26 - d24_26 - d25_26 = 0
b27 - d27_28 - d27_29 = 0
b27 - d26_27 = 0
b28 - d28_29 = 0
b28 - d27_28 = 0
b29 - d29_30 - d29_32 = 0
b29 - d27_29 - d28_29 = 0
b30 - d30_31 - d30_32 = 0
b30 - d29_30 = 0
b31 - d31_32 = 0
b31 - d30_31 = 0
b32 - d32_33 = 0
b32 - d29_32 - d30_32 - d31_32 = 0
b33 - d33_42 = 0
b33 - d32_33 - d40_33 = 0
b34 - d34_35 - d34_41 = 0
b34 - d44_34 = 0
b35 - d35_36 - d35_37 = 0
b35 - d34_35 = 0
b36 - d36_37 = 0
b36 - d35_36 = 0
b37 - d37_38 - d37_40 = 0
b37 - d35_37 - d36_37 = 0
b38 - d38_39 - d38_40 = 0
b38 - d37_38 = 0
b39 - d39_40 = 0
b39 - d38_39 = 0
b40 - d40_33 = 0
b40 - d37_40 - d38_40 - d39_40 = 0
b41 - d41_21 = 0
b41 - d34_41 = 0
b42 - d42_43 - d42_44 = 0
b42 - d33_42 = 0
b43 - d43_44 = 0
b43 - d42_43 = 0
b44 - d44_34 = 0
b44 - d42_44 - d43_44 = 0
b45 - d45_46 = 0
b45 - d5_45 = 0
b46 - d46_47 - d46_46 = 0
b46 - d45_46 - d46_46 = 0
b47 - d47_48 = 0
b47 - d46_47 = 0
b48 - d48_49 - d48_48 = 0
b48 - d47_48 - d48_48 = 0
b49 - d49_71 = 0
b49 - d48_49 = 0
b50 - d50_74 = 0
b50 - d73_50 = 0
b51 - d51_75 = 0
b51 - d74_51 = 0
b52 - d52_86 = 0
b52 - d82_52 = 0
b53 - d53_91 = 0
b53 - d90_53 = 0
b54 - d54_92 = 0
b54 - d91_54 = 0
b55 - d55_101 = 0
b55 - d100_55 = 0
b56 - d56_111 = 0
b56 - d110_56 = 0
b57 - d57_119 = 0
b57 - d118_57 = 0
b58 - d58_122 = 0
b58 - d121_58 = 0
b59 - d59_60 - d59_61 = 0
b59 - d122_59 = 0
b60 - d60_62 = 0
b60 - d59_60 = 0
b61 - d61_62 = 0
b61 - d59_61 = 0
b62 - d62_123 = 0
b62 - d60_62 - d61_62 = 0
b63 - d63_64 - d63_65 = 0
b63 - d125_63 = 0
b64 - d64_65 = 0
b64 - d63_64 = 0
b65 - d65_126 = 0
b65 - d63_65 - d64_65 = 0
b66 - d66_131 = 0
b66 - d130_66 = 0
b67 - d67_132 = 0
b67 - d131_67 = 0
b68 - d68_141 = 0
b68 - d140_68 = 0
b69 - d69_151 = 0
b69 - d150_69 = 0
b70 - d70_6 = 0
b70 - d158_70 = 0
b71 - d71_72 = 0
b71 - d49_71 = 0
b72 - d72_73 - d72_72 = 0
b72 - d71_72 - d72_72 = 0
b73 - d73_50 = 0
b73 - d72_73 = 0
b74 - d74_51 = 0
b74 - d50_74 = 0
b75 - d75_83 = 0
b75 - d51_75 = 0
b76 - d76_77 = 0
b76 - d85_76 = 0
b77 - d77_78 - d77_79 = 0
b77 - d76_77 - d78_77 = 0
b78 - d78_79 - d78_77 = 0
b78 - d77_78 = 0
b79 - d79_80 - d79_81 = 0
b79 - d77_79 - d78_79 = 0
b80 - d80_82 = 0
b80 - d79_80 = 0
b81 - d81_82 = 0
b81 - d79_81 = 0
b82 - d82_52 = 0
b82 - d80_82 - d81_82 = 0
b83 - d83_84 - d83_85 = 0
b83 - d75_83 = 0
b84 - d84_85 = 0
b84 - d83_84 = 0
b85 - d85_76 = 0
b85 - d83_85 - d84_85 = 0
b86 - d86_87 - d86_88 = 0
b86 - d52_86 = 0
b87 - d87_88 = 0
b87 - d86_87 = 0
b88 - d88_89 - d88_90 = 0
b88 - d86_88 - d87_88 = 0
b89 - d89_90 = 0
b89 - d88_89 = 0
b90 - d90_53 = 0
b90 - d88_90 - d89_90 = 0
b91 - d91_54 = 0
b91 - d53_91 = 0
b92 - d92_93 - d92_96 = 0
b92 - d54_92 = 0
b93 - d93_94 = 0
b93 - d92_93 = 0
b94 - d94_95 - d94_94 = 0
b94 - d93_94 - d94_94 = 0
b95 - d95_100 = 0
b95 - d94_95 = 0
b96 - d96_97 = 0
b96 - d92_96 = 0
b97 - d97_98 - d97_99 = 0
b97 - d96_97 - d99_97 = 0
b98 - d98_99 = 0
b98 - d97_98 = 0
b99 - d99_100 - d99_97 = 0
b99 - d97_99 - d98_99 = 0
b100 - d100_55 = 0
b100 - d95_100 - d99_100 = 0
b101 - d101_102 - d101_103 = 0
b101 - d55_101 = 0
b102 - d102_103 = 0
b102 - d101_102 = 0
b103 - d103_104 - d103_105 = 0
b103 - d101_103 - d102_103 = 0
b104 - d104_106 = 0
b104 - d103_104 = 0
b105 - d105_106 = 0
b105 - d103_105 = 0
b106 - d106_107 - d106_108 = 0
b106 - d104_106 - d105_106 = 0
b107 - d107_108 = 0
b107 - d106_107 = 0
b108 - d108_109 - d108_110 = 0
b108 - d106_108 - d107_108 = 0
b109 - d109_110 = 0
b109 - d108_109 = 0
b110 - d110_56 = 0
b110 - d108_110 - d109_110 = 0
b111 - d111_112 - d111_113 = 0
b111 - d56_111 = 0
b112 - d112_114 = 0
b112 - d111_112 = 0
b113 - d113_114 = 0
b113 - d111_113 = 0
b114 - d114_115 - d114_116 = 0
b114 - d112_114 - d113_114 = 0
b115 - d115_116 = 0
b115 - d114_115 = 0
b116 - d116_117 - d116_118 = 0
b116 - d114_116 - d115_116 = 0
b117 - d117_118 = 0
b117 - d116_117 = 0
b118 - d118_57 = 0
b118 - d116_118 - d117_118 = 0
b119 - d119_120 = 0
b119 - d57_119 = 0
b120 - d120_121 - d120_120 = 0
b120 - d119_120 - d120_120 = 0
b121 - d121_58 = 0
b121 - d120_121 = 0
b122 - d122_59 = 0
b122 - d58_122 = 0
b123 - d123_124 - d123_125 = 0
b123 - d62_123 = 0
b124 - d124_125 = 0
b124 - d123_124 = 0
b125 - d125_63 = 0
b125 - d123_125 - d124_125 = 0
b126 - d126_127 - d126_128 = 0
b126 - d65_126 = 0
b127 - d127_128 = 0
b127 - d126_127 = 0
b128 - d128_129 - d128_130 = 0
b128 - d126_128 - d127_128 = 0
b129 - d129_130 = 0
b129 - d128_129 = 0
b130 - d130_66 = 0
b130 - d128_130 - d129_130 = 0
b131 - d131_67 = 0
b131 - d66_131 = 0
b132 - d132_133 - d132_136 = 0
b132 - d67_132 = 0
b133 - d133_134 = 0
b133 - d132_133 = 0
b134 - d134_135 - d134_134 = 0
b134 - d133_134 - d134_134 = 0
b135 - d135_140 = 0
b135 - d134_135 = 0
b136 - d136_137 = 0
b136 - d132_136 = 0
b137 - d137_138 - d137_139 = 0
b137 - d136_137 - d139_137 = 0
b138 - d138_139 = 0
b138 - d137_138 = 0
b139 - d139_140 - d139_137 = 0
b139 - d137_139 - d138_139 = 0
b140 - d140_68 = 0
b140 - d135_140 - d139_140 = 0
b141 - d141_142 - d141_143 = 0
b141 - d68_141 = 0
b142 - d142_143 = 0
b142 - d141_142 = 0
b143 - d143_144 - d143_145 = 0
b143 - d141_143 - d142_143 = 0
b144 - d144_146 = 0
b144 - d143_144 = 0
b145 - d145_146 = 0
b145 - d143_145 = 0
b146 - d146_147 - d146_148 = 0
b146 - d144_146 - d145_146 = 0
b147 - d147_148 = 0
b147 - d146_147 = 0
b148 - d148_149 - d148_150 = 0
b148 - d146_148 - d147_148 = 0
b149 - d149_150 = 0
b149 - d148_149 = 0
b150 - d150_69 = 0
b150 - d148_150 - d149_150 = 0
b151 - d151_152 - d151_153 = 0
b151 - d69_151 = 0
b152 - d152_154 = 0
b152 - d151_152 = 0
b153 - d153_154 = 0
b153 - d151_153 = 0
b154 - d154_155 - d154_156 = 0
b154 - d152_154 - d153_154 = 0
b155 - d155_156 = 0
b155 - d154_155 = 0
b156 - d156_157 - d156_158 = 0
b156 - d154_156 - d155_156 = 0
b157 - d157_158 = 0
b157 - d156_157 = 0
b158 - d158_70 = 0
b158 - d156_158 - d157_158 = 0
b159 - d159_178 = 0
b159 - d8_159 = 0
b160 - d160_181 = 0
b160 - d180_160 = 0
b161 - d161_182 = 0
b161 - d181_161 = 0
b162 - d162_187 = 0
b162 - d186_162 = 0
b163 - d163_188 = 0
b163 - d187_163 = 0
b164 - d164_197 = 0
b164 - d196_164 = 0
b165 - d165_207 = 0
b165 - d206_165 = 0
b166 - d166_215 = 0
b166 - d214_166 = 0
b167 - d167_218 = 0
b167 - d217_167 = 0
b168 - d168_219 = 0
b168 - d218_168 = 0
b169 - d169_224 = 0
b169 - d223_169 = 0
b170 - d170_225 = 0
b170 - d224_170 = 0
b171 - d171_234 = 0
b171 - d233_171 = 0
b172 - d172_244 = 0
b172 - d243_172 = 0
b173 - d173_174 = 0
b173 - d251_173 = 0
b174 - d174_175 - d174_174 = 0
b174 - d173_174 - d174_174 = 0
b175 - d175_176 = 0
b175 - d174_175 = 0
b176 - d176_177 - d176_176 = 0
b176 - d175_176 - d176_176 = 0
b177 - d177_9 = 0
b177 - d176_177 = 0
b178 - d178_179 = 0
b178 - d159_178 = 0
b179 - d179_180 - d179_179 = 0
b179 - d178_179 - d179_179 = 0
b180 - d180_160 = 0
b180 - d179_180 = 0
b181 - d181_161 = 0
b181 - d160_181 = 0
b182 - d182_183 - d182_184 = 0
b182 - d161_182 = 0
b183 - d183_184 = 0
b183 - d182_183 = 0
b184 - d184_185 - d184_186 = 0
b184 - d182_184 - d183_184 = 0
b185 - d185_186 = 0
b185 - d184_185 = 0
b186 - d186_162 = 0
b186 - d184_186 - d185_186 = 0
b187 - d187_163 = 0
b187 - d162_187 = 0
b188 - d188_189 - d188_192 = 0
b188 - d163_188 = 0
b189 - d189_190 = 0
b189 - d188_189 = 0
b190 - d190_191 - d190_190 = 0
b190 - d189_190 - d190_190 = 0
b191 - d191_196 = 0
b191 - d190_191 = 0
b192 - d192_193 = 0
b192 - d188_192 = 0
b193 - d193_194 - d193_195 = 0
b193 - d192_193 - d195_193 = 0
b194 - d194_195 = 0
b194 - d193_194 = 0
b195 - d195_196 - d195_193 = 0
b195 - d193_195 - d194_195 = 0
b196 - d196_164 = 0
b196 - d191_196 - d195_196 = 0
b197 - d197_198 - d197_199 = 0
b197 - d164_197 = 0
b198 - d198_199 = 0
b198 - d197_198 = 0
b199 - d199_200 - d199_201 = 0
b199 - d197_199 - d198_199 = 0
b200 - d200_202 = 0
b200 - d199_200 = 0
b201 - d201_202 = 0
b201 - d199_201 = 0
b202 - d202_203 - d202_204 = 0
b202 - d200_202 - d201_202 = 0
b203 - d203_204 = 0
b203 - d202_203 = 0
b204 - d204_205 - d204_206 = 0
b204 - d202_204 - d203_204 = 0
b205 - d205_206 = 0
b205 - d204_205 = 0
b206 - d206_165 = 0
b206 - d204_206 - d205_206 = 0
b207 - d207_208 - d207_209 = 0
b207 - d165_207 = 0
b208 - d208_210 = 0
b208 - d207_208 = 0
b209 - d209_210 = 0
b209 - d207_209 = 0
b210 - d210_211 - d210_212 = 0
b210 - d208_210 - d209_210 = 0
b211 - d211_212 = 0
b211 - d210_211 = 0
b212 - d212_213 - d212_214 = 0
b212 - d210_212 - d211_212 = 0
b213 - d213_214 = 0
b213 - d212_213 = 0
b214 - d214_166 = 0
b214 - d212_214 - d213_214 = 0
b215 - d215_216 = 0
b215 - d166_215 = 0
b216 - d216_217 - d216_216 = 0
b216 - d215_216 - d216_216 = 0
b217 - d217_167 = 0
b217 - d216_217 = 0
b218 - d218_168 = 0
b218 - d167_218 = 0
b219 - d219_220 - d219_221 = 0
b219 - d168_219 = 0
b220 - d220_221 = 0
b220 - d219_220 = 0
b221 - d221_222 - d221_223 = 0
b221 - d219_221 - d220_221 = 0
b222 - d222_223 = 0
b222 - d221_222 = 0
b223 - d223_169 = 0
b223 - d221_223 - d222_223 = 0
b224 - d224_170 = 0
b224 - d169_224 = 0
b225 - d225_226 - d225_229 = 0
b225 - d170_225 = 0
b226 - d226_227 = 0
b226 - d225_226 = 0
b227 - d227_228 - d227_227 = 0
b227 - d226_227 - d227_227 = 0
b228 - d228_233 = 0
b228 - d227_228 = 0
b229 - d229_230 = 0
b229 - d225_229 = 0
b230 - d230_231 - d230_232 = 0
b230 - d229_230 - d232_230 = 0
b231 - d231_232 = 0
b231 - d230_231 = 0
b232 - d232_233 - d232_230 = 0
b232 - d230_232 - d231_232 = 0
b233 - d233_171 = 0
b233 - d228_233 - d232_233 = 0
b234 - d234_235 - d234_236 = 0
b234 - d171_234 = 0
b235 - d235_236 = 0
b235 - d234_235 = 0
b236 - d236_237 - d236_238 = 0
b236 - d234_236 - d235_236 = 0
b237 - d237_239 = 0
b237 - d236_237 = 0
b238 - d238_239 = 0
b238 - d236_238 = 0
b239 - d239_240 - d239_241 = 0
b239 - d237_239 - d238_239 = 0
b240 - d240_241 = 0
b240 - d239_240 = 0
b241 - d241_242 - d241_243 = 0
b241 - d239_241 - d240_241 = 0
b242 - d242_243 = 0
b242 - d241_242 = 0
b243 - d243_172 = 0
b243 - d241_243 - d242_243 = 0
b244 - d244_245 - d244_246 = 0
b244 - d172_244 = 0
b245 - d245_247 = 0
b245 - d244_245 = 0
b246 - d246_247 = 0
b246 - d244_246 = 0
b247 - d247_248 - d247_249 = 0
b247 - d245_247 - d246_247 = 0
b248 - d248_249 = 0
b248 - d247_248 = 0
b249 - d249_250 - d249_251 = 0
b249 - d247_249 - d248_249 = 0
b250 - d250_251 = 0
b250 - d249_250 = 0
b251 - d251_173 = 0
b251 - d249_251 - d250_251 = 0


\ === infeasible path constraints ===
b183 + d184_185 - 4 b7 <= 0
b87 + d88_89 <= 1
b240 + d241_242 - 4 b7 <= 0
b203 + d204_205